2003747
19,1,59,22,40,10,-1,45,2,18,63,46,0,25,15,7,56,13,6,34,26,29,20,50,12,42,55,16,8,31,48,57,14,61,66,33,49,37,60,51,35,43,11,52,30,54,38,3,58,21,47,17,27,23,28,39,4,62,9,64,24,65,5,32,53,44,41,36,19
